networks/zoo_66_212/zoo_66_212-lower.txt
Number of groups: 29
Flow 1: {1 2 0} {2 35 0} 
Flow 2: {1 25 0} {25 4 0} {4 5 0} {5 38 0} 
Flow 3: {1 7 0} {7 40 0} 
Flow 4: {7 8 0} {8 41 0} 
Flow 5: {8 17 0} {17 50 0} 
Flow 6: {25 22 0} {22 20 0} {20 53 0} 
Flow 7: {22 21 0} {21 54 0} 
Flow 8: {22 55 0} 
Flow 9: {25 24 0} {24 57 0} 
Flow 10: {25 58 0} 
Flow 11: {22 30 0} {30 63 0} 
Flow 12: {22 31 0} {31 64 0} 
Flow 13: {31 32 0} {32 65 0} 
Flow 14: {24 33 0} {33 66 0} 
Flow 15: {4 25 0} {25 1 0} Flow 16: {5 21 0} {21 8 0} Flow 19: {8 7 0} Flow 21: {21 22 0} Flow 22: {8 21 0} {21 5 0} Flow 26: {7 1 0} Flow 31: {7 2 0} {9 21 0} Flow 36: {21 20 0} Flow 39: {22 25 0} Flow 41: {9 26 0} {26 27 0} {27 28 0} {28 61 0} 
Flow 46: {11 21 0} Flow 49: {14 22 0} Flow 50: {4 37 0} 
Flow 51: {14 11 0} Flow 60: {22 28 0} Flow 65: {1 34 0} 
Flow 65: {17 8 0} Flow 67: {5 4 0} Flow 71: {17 18 0} {18 51 0} 
Flow 77: {21 9 0} {26 59 0} 
Flow 78: {27 60 0} 
Flow 84: {19 21 0} Flow 85: {20 21 0} Flow 89: {20 22 0} Flow 95: {21 6 0} {6 39 0} 
Flow 98: {22 12 0} {12 45 0} 
Flow 99: {22 13 0} {13 46 0} 
Flow 100: {21 11 0} {11 14 0} {14 47 0} 
Flow 101: {14 15 0} {15 48 0} 
Flow 102: {17 16 0} {16 49 0} 
Flow 104: {21 19 0} {19 18 0} Flow 123: {9 42 0} 
Flow 124: {11 44 0} 
Flow 124: {22 14 0} Flow 132: {19 52 0} 
Flow 138: {28 27 0} Flow 144: {24 25 0} Flow 175: {26 9 0} Flow 185: {27 26 0} Flow 187: {28 22 0} Flow 193: {30 22 0} Flow 202: {31 22 0} Flow 210: {32 33 0} Flow 211: {33 24 0} Time taken running everything: 1 seconds
