networks/zoo_66_212/zoo_66_212-lower.sol
<?xml version = "1.0" encoding="UTF-8" standalone="yes"?>
<CPLEXSolution version="1.2">
 <header
   problemName="networks/zoo_66_212/zoo_66_212-lower.lp"
   solutionName="incumbent"
   solutionIndex="-1"
   objectiveValue="29"
   solutionTypeValue="3"
   solutionTypeString="primal"
   solutionStatusValue="101"
   solutionStatusString="integer optimal solution"
   solutionMethodString="mip"
   primalFeasible="1"
   dualFeasible="1"
   MIPNodes="0"
   MIPIterations="0"
   writeLevel="3"/>
 <quality
   epInt="1.0000000000000001e-05"
   epRHS="9.9999999999999995e-07"
   maxIntInfeas="0"
   maxPrimalInfeas="0"
   maxX="1"
   maxSlack="1"/>
 <variables>
  <variable name="Y(1,2)" index="1" value="1"/>
  <variable name="Y(2,5)" index="61" value="1"/>
  <variable name="Y(3,7)" index="121" value="1"/>
  <variable name="Y(4,8)" index="180" value="1"/>
  <variable name="Y(5,17)" index="246" value="1"/>
  <variable name="Y(6,20)" index="307" value="1"/>
  <variable name="Y(7,21)" index="366" value="1"/>
  <variable name="Y(8,22)" index="425" value="1"/>
  <variable name="Y(9,24)" index="484" value="1"/>
  <variable name="Y(10,25)" index="543" value="1"/>
  <variable name="Y(11,30)" index="605" value="1"/>
  <variable name="Y(12,31)" index="664" value="1"/>
  <variable name="Y(13,32)" index="723" value="1"/>
  <variable name="Y(14,33)" index="782" value="1"/>
  <variable name="Y(41,28)" index="2344" value="1"/>
  <variable name="Y(50,4)" index="2844" value="1"/>
  <variable name="Y(65,1)" index="3712" value="1"/>
  <variable name="Y(71,18)" index="4075" value="1"/>
  <variable name="Y(77,26)" index="4430" value="1"/>
  <variable name="Y(78,27)" index="4489" value="1"/>
  <variable name="Y(95,6)" index="5456" value="1"/>
  <variable name="Y(98,12)" index="5635" value="1"/>
  <variable name="Y(99,13)" index="5694" value="1"/>
  <variable name="Y(100,14)" index="5753" value="1"/>
  <variable name="Y(101,15)" index="5812" value="1"/>
  <variable name="Y(102,16)" index="5871" value="1"/>
  <variable name="Y(123,9)" index="7083" value="1"/>
  <variable name="Y(124,11)" index="7142" value="1"/>
  <variable name="Y(132,19)" index="7614" value="1"/>
  <variable name="X(1,2,1)" index="12296" value="1"/>
  <variable name="X(1,7,3)" index="12510" value="1"/>
  <variable name="X(1,25,2)" index="12721" value="1"/>
  <variable name="X(1,34,65)" index="12996" value="1"/>
  <variable name="X(2,35,1)" index="13144" value="1"/>
  <variable name="X(4,5,2)" index="13357" value="1"/>
  <variable name="X(4,25,15)" index="13582" value="1"/>
  <variable name="X(4,37,50)" index="13829" value="1"/>
  <variable name="X(5,4,67)" index="14058" value="1"/>
  <variable name="X(5,21,16)" index="14219" value="1"/>
  <variable name="X(5,38,2)" index="14417" value="1"/>
  <variable name="X(6,39,95)" index="14722" value="1"/>
  <variable name="X(7,1,26)" index="14865" value="1"/>
  <variable name="X(7,2,31)" index="15082" value="1"/>
  <variable name="X(7,8,4)" index="15267" value="1"/>
  <variable name="X(7,40,3)" index="15478" value="1"/>
  <variable name="X(8,7,19)" index="15706" value="1"/>
  <variable name="X(8,17,5)" index="15904" value="1"/>
  <variable name="X(8,21,22)" index="16133" value="1"/>
  <variable name="X(8,41,4)" index="16327" value="1"/>
  <variable name="X(9,21,31)" index="16566" value="1"/>
  <variable name="X(9,26,41)" index="16788" value="1"/>
  <variable name="X(9,42,123)" index="17082" value="1"/>
  <variable name="X(11,14,100)" index="17271" value="1"/>
  <variable name="X(11,21,46)" index="17429" value="1"/>
  <variable name="X(11,44,124)" index="17719" value="1"/>
  <variable name="X(12,45,98)" index="17905" value="1"/>
  <variable name="X(13,46,99)" index="18118" value="1"/>
  <variable name="X(14,11,51)" index="18282" value="1"/>
  <variable name="X(14,15,101)" index="18544" value="1"/>
  <variable name="X(14,22,49)" index="18704" value="1"/>
  <variable name="X(14,47,100)" index="18967" value="1"/>
  <variable name="X(15,48,101)" index="19180" value="1"/>
  <variable name="X(16,49,102)" index="19393" value="1"/>
  <variable name="X(17,8,65)" index="19568" value="1"/>
  <variable name="X(17,16,102)" index="19817" value="1"/>
  <variable name="X(17,18,71)" index="19998" value="1"/>
  <variable name="X(17,50,5)" index="20144" value="1"/>
  <variable name="X(18,51,71)" index="20422" value="1"/>
  <variable name="X(19,18,104)" index="20667" value="1"/>
  <variable name="X(19,21,84)" index="20859" value="1"/>
  <variable name="X(19,52,132)" index="21119" value="1"/>
  <variable name="X(20,21,85)" index="21284" value="1"/>
  <variable name="X(20,22,89)" index="21500" value="1"/>
  <variable name="X(20,53,6)" index="21629" value="1"/>
  <variable name="X(21,5,22)" index="21857" value="1"/>
  <variable name="X(21,6,95)" index="22142" value="1"/>
  <variable name="X(21,8,16)" index="22275" value="1"/>
  <variable name="X(21,9,77)" index="22548" value="1"/>
  <variable name="X(21,11,100)" index="22783" value="1"/>
  <variable name="X(21,19,104)" index="22999" value="1"/>
  <variable name="X(21,20,36)" index="23143" value="1"/>
  <variable name="X(21,22,21)" index="23340" value="1"/>
  <variable name="X(21,54,7)" index="23538" value="1"/>
  <variable name="X(22,12,98)" index="23841" value="1"/>
  <variable name="X(22,13,99)" index="24054" value="1"/>
  <variable name="X(22,14,124)" index="24291" value="1"/>
  <variable name="X(22,20,6)" index="24385" value="1"/>
  <variable name="X(22,21,7)" index="24598" value="1"/>
  <variable name="X(22,25,39)" index="24842" value="1"/>
  <variable name="X(22,28,60)" index="25075" value="1"/>
  <variable name="X(22,30,11)" index="25238" value="1"/>
  <variable name="X(22,31,12)" index="25451" value="1"/>
  <variable name="X(22,55,8)" index="25659" value="1"/>
  <variable name="X(24,25,144)" index="26007" value="1"/>
  <variable name="X(24,33,14)" index="26089" value="1"/>
  <variable name="X(24,57,9)" index="26296" value="1"/>
  <variable name="X(25,1,15)" index="26514" value="1"/>
  <variable name="X(25,4,2)" index="26713" value="1"/>
  <variable name="X(25,22,6)" index="26929" value="1"/>
  <variable name="X(25,24,9)" index="27144" value="1"/>
  <variable name="X(25,58,10)" index="27357" value="1"/>
  <variable name="X(26,9,175)" index="27734" value="1"/>
  <variable name="X(26,27,41)" index="27812" value="1"/>
  <variable name="X(26,59,77)" index="28060" value="1"/>
  <variable name="X(27,26,185)" index="28380" value="1"/>
  <variable name="X(27,28,41)" index="28448" value="1"/>
  <variable name="X(27,60,78)" index="28697" value="1"/>
  <variable name="X(28,22,187)" index="29018" value="1"/>
  <variable name="X(28,27,138)" index="29181" value="1"/>
  <variable name="X(28,61,41)" index="29296" value="1"/>
  <variable name="X(30,22,193)" index="29660" value="1"/>
  <variable name="X(30,63,11)" index="29690" value="1"/>
  <variable name="X(31,22,202)" index="30093" value="1"/>
  <variable name="X(31,32,13)" index="30116" value="1"/>
  <variable name="X(31,64,12)" index="30327" value="1"/>
  <variable name="X(32,33,210)" index="30737" value="1"/>
  <variable name="X(32,65,13)" index="30752" value="1"/>
  <variable name="X(33,24,211)" index="31162" value="1"/>
  <variable name="X(33,66,14)" index="31177" value="1"/>
 </variables>
</CPLEXSolution>
